
  12    4
  10   10   10   10

   0   0   0   0   0   4 2 4 5 6 
   9  10  10  10  10   4 11 9 7 3 
   1  10  10  10  10   2 10 8 
   9  10  10  10  10   2 9 7 
   6  10  10  10  10   2 8 7 
   1  10  10  10  10   1 7 
   1  10  10  10  10   1 12
   4  10  10  10  10   1 12
   2  10  10  10  10   1 12
   5  10  10  10  10   1 12
   2  10  10  10  10   1 12
   0   0   0   0   0   0 
